%chk=cyclohexyl-diBIP-E0PT.chk
%mem=10GB
%nprocshared=16
#p opt=tight freq=internalmodes b3lyp/6-31g(d,p)
scrf=(cpcm,solvent=dichloromethane,read) nosymm empiricaldispersion=gd3bj
int=grid=ultrafine

cyclohexylimine diBIP oxidized, no protons transferred optimization

1 2
C     1.610100     1.119887    -0.016592
C     0.387654     1.823100    -0.110289
C     0.394709     3.214206    -0.279630
C     1.629508     3.853355    -0.353530
C     2.836705     3.137920    -0.255874
C     2.862617     1.749113    -0.088009
C    -0.103131    -0.271394     0.119367
H    -0.533870     3.767141    -0.354507
H     1.667298     4.928384    -0.484284
H     3.778459     3.672304    -0.314934
C    -2.275850    -1.433338     0.174275
C    -3.111214    -2.583344     0.225822
C    -2.541317    -3.860290     0.354036
C    -1.158457    -3.930603     0.424500
C    -0.336477    -2.780900     0.359908
C    -0.871184    -1.500344     0.226928
C    -4.394123    -0.832707     0.047231
H    -3.161202    -4.746076     0.396077
H    -0.681788    -4.897399     0.528322
H     0.737999    -2.907232     0.417620
N    -0.665706     0.928927    -0.018002
C    -6.863891    -0.743784    -0.156657
C    -5.588833    -0.044262    -0.056596
C    -5.562564     1.346981    -0.066497
C    -6.744582     2.077086    -0.172472
C    -7.980358     1.366127    -0.289258
C    -8.091216    -0.003049    -0.292255
H    -4.611976     1.855476     0.014399
H    -8.880069     1.956967    -0.374766
C    -6.779701     3.595637    -0.158121
C    -9.435185    -0.719511    -0.436066
O    -6.895866    -2.046520    -0.124931
H    -5.923596    -2.409296    -0.004706
N    -3.111043    -0.358838     0.066845
N    -4.416137    -2.172558     0.138838
H    -2.744957     0.589114    -0.006368
N     1.266953    -0.201069     0.128886
H     1.964436    -0.933305     0.203268
C     4.111996     1.001786     0.009392
H     5.026328     1.601084    -0.059864
N     4.127940    -0.271477     0.160371
C     5.445435    -0.925355     0.238992
C     6.255350    -0.751212    -1.057128
C     6.260566    -0.455198     1.455691
H     5.248432    -1.996105     0.365963
C     7.602352    -1.475986    -0.971527
H     6.426117     0.319320    -1.223555
H     5.669167    -1.118258    -1.904829
C     7.607014    -1.182463     1.536392
H     6.435454     0.623745     1.368884
H     5.678678    -0.613918     2.368436
C     8.411139    -1.008749     0.243470
H     8.167311    -1.315501    -1.894699
H     7.426905    -2.556250    -0.891917
H     8.175968    -0.814614     2.395621
H     7.430043    -2.251728     1.708998
H     9.354816    -1.559302     0.306018
H     8.667790     0.050929     0.118281
C    -7.470518     4.095679    -1.447677
H    -8.490285     3.717232    -1.539746
H    -7.517719     5.186939    -1.425976
H    -6.909157     3.789810    -2.333545
C    -7.599146     4.051847     1.072447
H    -7.684387     5.141441     1.062816
H    -8.607600     3.632470     1.067687
H    -7.104020     3.752229     1.999028
C    -5.377680     4.212208    -0.079018
H    -4.858607     3.917738     0.836557
H    -4.765202     3.920617    -0.935774
H    -5.464897     5.300477    -0.079913
C    -9.423871    -1.582640    -1.716967
H    -8.645529    -2.344770    -1.685695
H   -10.390781    -2.081550    -1.821137
H    -9.266680    -0.958090    -2.599853
C   -10.588784     0.287924    -0.549624
H   -10.660964     0.921659     0.337787
H   -10.482900     0.931575    -1.426512
H   -11.526753    -0.261770    -0.649545
C    -9.702910    -1.606803     0.800330
H   -10.679375    -2.085149     0.688894
H    -8.949345    -2.384203     0.913867
H    -9.722625    -1.001779     1.710051

radii=bondi
dis
rep
cav



