%chk=cyclohexyl-monoBIP-E1PT.chk
%mem=10GB
%nprocshared=16
#p opt=tight freq=internalmodes b3lyp/6-31g(d,p)
scrf=(cpcm,solvent=dichloromethane,read) nosymm empiricaldispersion=gd3bj
int=grid=ultrafine

cyclohexylimine monoBIP oxidized, with first proton transferred
optimization

1 2
C    -0.500700     2.795099     0.366564
C    -1.888756     2.988755     0.285152
C    -2.439117     4.269532     0.195180
C    -1.539354     5.331386     0.197421
C    -0.147530     5.133655     0.282622
C     0.414372     3.857939     0.366325
C    -1.472879     0.789421     0.397006
H    -3.507434     4.423448     0.125656
H    -1.920620     6.342852     0.132039
H     0.511075     5.994513     0.282171
N    -2.443276     1.720964     0.307419
C    -3.051167    -1.165079     0.324995
C    -1.681522    -0.639533     0.436730
C    -0.608879    -1.496606     0.563803
C    -0.787015    -2.897044     0.585282
C    -2.095986    -3.411943     0.477239
C    -3.223380    -2.622391     0.349004
H     0.395795    -1.102185     0.650899
H    -2.218517    -4.483276     0.495940
C     0.439552    -3.791576     0.699391
C    -4.620524    -3.224009     0.230773
O    -4.026144    -0.380290     0.211266
N    -0.287163     1.435613     0.433712
H     0.662886     1.069181     0.482507
C     1.855667     3.620564     0.438970
H     2.487593     4.512926     0.429056
N     2.319926     2.428818     0.504615
C     3.776936     2.240335     0.536736
C     4.373273     2.434557    -0.868008
C     4.511964     3.116880     1.562939
H     3.936810     1.194257     0.820326
C     5.875025     2.129741    -0.872772
H     4.202597     3.474257    -1.173386
H     3.843548     1.797243    -1.582001
C     6.011139     2.797698     1.565411
H     4.372407     4.175044     1.314526
H     4.078484     2.957532     2.554789
C     6.620745     2.970221     0.169900
H     6.285843     2.309867    -1.870635
H     6.025716     1.064803    -0.656505
H     6.525113     3.438601     2.287819
H     6.157286     1.763038     1.900122
H     7.681306     2.701871     0.183810
H     6.564094     4.027534    -0.117509
H    -3.417409     1.425694     0.257575
C    -5.508812    -2.709140     1.386591
H    -5.627835    -1.628402     1.339394
H    -6.494993    -3.175805     1.317385
H    -5.072553    -2.972996     2.353618
C    -4.585105    -4.758692     0.305618
H    -3.994593    -5.192688    -0.505392
H    -4.175341    -5.106811     1.257247
H    -5.604931    -5.138941     0.219065
C     0.080920    -5.282855     0.729016
H    -0.539622    -5.533050     1.593350
H    -0.446737    -5.587369    -0.178160
H     0.999174    -5.869919     0.794722
C     1.347725    -3.520089    -0.521647
H     0.833683    -3.773873    -1.451824
H     1.649485    -2.471465    -0.569562
H     2.250453    -4.131637    -0.448319
C     1.207268    -3.438260     1.991994
H     0.587763    -3.612041     2.874598
H     2.095175    -4.070806     2.065117
H     1.534375    -2.396151     1.998954
C    -5.243062    -2.825314    -1.126819
H    -6.240036    -3.266669    -1.206510
H    -5.332081    -1.744307    -1.222704
H    -4.637640    -3.202658    -1.954963

radii=bondi
dis
rep
cav







