%chk=cyclohexyl-monoBIP-E1PT.chk
%mem=10GB
%nprocshared=16
#p opt=tight freq=internalmodes b3lyp/6-31g(d,p)
scrf=(cpcm,solvent=dichloromethane,read) nosymm empiricaldispersion=gd3bj
int=grid=ultrafine

cyclohexylimine monoBIP oxidized, with first proton transferred
optimization

1 2
 C                 -0.49459700    2.76686400    0.31681200
 C                 -1.88595700    2.95209800    0.28169600
 C                 -2.44538700    4.23080600    0.21964700
 C                 -1.55150300    5.29754100    0.19908900
 C                 -0.15600100    5.10716500    0.23090900
 C                  0.41456000    3.83424400    0.28780800
 C                 -1.45100400    0.75624700    0.37073300
 H                 -3.51625800    4.37976700    0.19003200
 H                 -1.94019400    6.30735700    0.15533400
 H                  0.49814100    5.97109000    0.21064300
 N                 -2.43135900    1.68044200    0.31550500
 C                 -3.02429000   -1.19608400    0.32578100
 C                 -1.65531000   -0.67127800    0.41325800
 C                 -0.58616900   -1.53771700    0.52790600
 C                 -0.77661400   -2.93701200    0.56547500
 C                 -2.08529200   -3.45714200    0.47085100
 C                 -3.19433500   -2.64723000    0.35292300
 H                  0.42531900   -1.15417800    0.59861600
 H                 -2.21622400   -4.53349500    0.49926800
 C                  0.40460500   -3.84227400    0.71718200
 C                 -4.58294100   -3.18804700    0.25845500
 O                 -4.02281300   -0.44059000    0.23187300
 N                 -0.26954800    1.40909600    0.37332900
 H                  0.68509300    1.05076400    0.39837000
 C                  1.85791500    3.59922500    0.30833100
 H                  2.49086200    4.49027600    0.26234700
 N                  2.32356000    2.40792800    0.37687800
 C                  3.78289700    2.23016200    0.39572700
 C                  4.42677500    2.64749500   -0.93712900
 C                  4.45640400    2.95826800    1.57088300
 H                  3.95273600    1.15566700    0.52711200
 C                  5.93538200    2.37595700   -0.91852400
 H                  4.24369000    3.71741700   -1.09200500
 H                  3.94473700    2.11317100   -1.76108200
 C                  5.96316400    2.67883700    1.59119000
 H                  4.29173500    4.03695700    1.46499500
 H                  3.98514100    2.65198700    2.50922700
 C                  6.61588000    3.07719800    0.26229000
 H                  6.38585200    2.69214400   -1.86415500
 H                  6.10020200    1.29430900   -0.83769800
 H                  6.42808600    3.21497700    2.42393700
 H                  6.12968500    1.60921300    1.76963800
 H                  7.68428400    2.84226400    0.27800100
 H                  6.53059100    4.16355000    0.13274900
 H                 -3.40523000    1.37990900    0.28880300
 C                 -5.47203039   -2.59106354    1.36513056
 H                 -6.00105724   -1.74456776    0.97980538
 H                 -6.17255960   -3.32881065    1.69662420
 H                 -4.86021797   -2.28502516    2.18788573
 C                 -4.58496214   -4.72308416    0.38197360
 H                 -4.00194567   -5.14537012   -0.40964901
 H                 -4.16448431   -5.00561932    1.32445557
 H                 -5.58986079   -5.08481437    0.31693555
 C                 -0.01460295   -5.32400016    0.69841247
 H                 -0.66933513   -5.51988693    1.52173145
 H                 -0.52097259   -5.53980915   -0.21914749
 H                  0.85523118   -5.94181500    0.77961228
 C                  1.42633070   -3.59954376   -0.40920986
 H                  0.90855635   -3.37053437   -1.31715502
 H                  2.06129473   -2.78006959   -0.14428957
 H                  2.01904107   -4.47937721   -0.54880756
 C                  1.13063779   -3.55034893    2.04355154
 H                  0.41212806   -3.46167578    2.83144801
 H                  1.80532316   -4.35088708    2.26454547
 H                  1.67891329   -2.63565293    1.95622917
 C                 -5.23162981   -2.79425703   -1.08159436
 H                 -5.94088231   -3.54247011   -1.36801726
 H                 -5.72962766   -1.85335170   -0.97391285
 H                 -4.47509158   -2.71334207   -1.83392586

radii=bondi
dis
rep
cav







