%chk=cyclohexyl-triBIP-neutral.chk
%mem=10GB
%nprocshared=16
#p opt=tight freq=internalmodes b3lyp/6-31g(d,p)
scrf=(cpcm,solvent=dichloromethane,read) nosymm empiricaldispersion=gd3bj
int=grid=ultrafine

cyclohexylimine triBIP neutral optimization

0 1
C     1.683326     0.325123     0.811760
C     0.582342     1.159599     0.505263
C     0.775532     2.535441     0.339342
C     2.069272     3.032111     0.490072
C     3.152289     2.195230     0.803178
C     2.988532     0.813851     0.974432
C    -0.186537    -0.855562     0.686339
H    -0.057019     3.186692     0.101855
H     2.249693     4.093228     0.364703
H     4.139127     2.630498     0.907196
C    -2.468809    -1.779002     0.506175
C    -3.415226    -2.828566     0.522135
C    -2.997959    -4.141366     0.760505
C    -1.637217    -4.359273     0.976757
C    -0.704966    -3.310575     0.958025
C    -1.098139    -1.985952     0.720952
C    -4.502134    -0.987402     0.098598
H    -3.710111    -4.957679     0.775142
H    -1.283841    -5.365846     1.165596
H     0.341018    -3.533215     1.130757
N    -0.570217     0.394576     0.434975
C    -6.892730    -0.564799    -0.389803
C    -5.578920    -0.064604    -0.216929
C    -5.324331     1.311816    -0.358171
C    -6.337125     2.200654    -0.680243
C    -7.629161     1.670529    -0.860185
C    -7.946788     0.321821    -0.723829
H    -4.314192     1.670662    -0.210685
H    -8.422806     2.358158    -1.118601
C    -6.110214     3.706959    -0.844595
C    -9.382227    -0.189609    -0.918771
O    -7.156859    -1.881604    -0.245164
H    -6.298880    -2.346662    -0.016849
N    -3.183562    -0.634959     0.240938
N    -4.671175    -2.301502     0.267309
H    -2.736460     0.271423     0.158565
N     1.165504    -0.942577     0.916756
H     1.740698    -1.753128     1.114384
C     4.068003    -0.093759     1.325488
N     3.944015    -1.418930     1.386735
N     5.337590     0.320410     1.650240
C     7.406371    -0.942680     2.356885
C     7.838847    -2.257035     2.569698
C     6.983715    -3.357336     2.380821
C     5.656640    -3.194036     1.985122
C     5.192199    -1.890197     1.768612
C     6.072809    -0.798763     1.945645
H     8.861684    -2.424660     2.889971
H     7.366897    -4.355765     2.556073
H     4.999058    -4.044935     1.853817
H     5.732695     1.251676     1.718941
C     8.275015     0.214645     2.563472
H     9.289520    -0.008568     2.903729
N     7.853450     1.406854     2.356810
C     8.742024     2.551725     2.548422
C    10.125143     2.279316     3.149874
C     8.875620     3.289195     1.204493
H     8.207067     3.226670     3.231736
C    10.906877     3.587165     3.322534
H    10.686312     1.609076     2.486761
H    10.023429     1.767281     4.112235
C     9.672601     4.588490     1.357893
H     9.381669     2.621466     0.496548
H     7.878406     3.488949     0.801313
C    11.044304     4.335868     1.992898
H    11.893365     3.376798     3.747211
H    10.383920     4.227041     4.044248
H     9.787385     5.072781     0.383271
H     9.105225     5.281172     1.991934
H    11.571343     5.283100     2.144517
H    11.655218     3.736941     1.305833
C    -9.425025    -1.215321    -2.071115
H    -8.759355    -2.055823    -1.879661
H   -10.444401    -1.595168    -2.189554
H    -9.130406    -0.742522    -3.012419
C    -6.464183     4.117948    -2.288534
H    -7.500822     3.869222    -2.529004
H    -6.335338     5.196680    -2.418307
H    -5.816482     3.607920    -3.006676
C    -9.887834    -0.841924     0.385536
H   -10.909074    -1.208006     0.243874
H    -9.257411    -1.678754     0.683039
H    -9.899143    -0.109630     1.197946
C   -10.348888     0.950771    -1.275042
H   -10.392194     1.707311    -0.486580
H   -10.067056     1.445581    -2.208302
H   -11.354054     0.541620    -1.402331
C    -7.018721     4.475177     0.136845
H    -6.875621     5.552971     0.015995
H    -8.075101     4.256312    -0.036495
H    -6.782730     4.211948     1.171307
C    -4.654132     4.102833    -0.562823
H    -4.361293     3.848579     0.459732
H    -3.961186     3.608964    -1.249111
H    -4.537072     5.182208    -0.687470

radii=bondi
dis
rep
cav





