%chk=cyclohexyl-monoBIP-TS1.chk
%mem=10GB
%nprocshared=16
#p opt=(calcfc,tight,ts,noeigentest) freq=internalmodes b3lyp/6-31g(d,p)
scrf=(cpcm,solvent=dichloromethane,read) nosymm 
empiricaldispersion=gd3bj int=grid=ultrafine

cyclohexylimine monoBIP oxidized, optimize to transition state of first
proton transferred

1 2
 C                 -0.42419100    2.67174000    0.27773200
 C                 -1.83568200    2.79278600    0.23762000
 C                 -2.43393200    4.05878100    0.14154700
 C                 -1.58508000    5.15590000    0.09356900
 C                 -0.17867900    5.02067400    0.13607900
 C                  0.44283200    3.77616900    0.22938600
 C                 -1.33668500    0.66603600    0.36926400
 H                 -3.51006600    4.16886900    0.10552300
 H                 -2.00792600    6.15043800    0.02130800
 H                  0.43820000    5.91088900    0.09588900
 N                 -2.36559100    1.52550800    0.29775000
 C                 -2.95818400   -1.18914800    0.41953000
 C                 -1.56604400   -0.75274500    0.42968000
 C                 -0.55905600   -1.70280700    0.47879500
 C                 -0.86680700   -3.07204700    0.52101300
 C                 -2.23064000   -3.48478300    0.52576500
 C                 -3.27348400   -2.59449300    0.48095200
 H                  0.47865100   -1.39238600    0.47916500
 H                 -2.44452100   -4.54683600    0.56929100
 C                  0.21415300   -4.10109200    0.53956400
 C                 -4.70983400   -3.00981100    0.48526000
 O                 -3.92255000   -0.33374200    0.35053100
 N                 -0.14932900    1.33215900    0.36147800
 H                  0.81228800    0.99912700    0.40377400
 C                  1.89445000    3.60335200    0.27084400
 H                  2.49113600    4.51934300    0.21673600
 N                  2.40906700    2.43411900    0.36600800
 C                  3.87325300    2.31463600    0.40552600
 C                  4.52199400    2.74124600   -0.92173600
 C                  4.50315400    3.07875900    1.58163800
 H                  4.08304900    1.24905900    0.55080200
 C                  6.03760100    2.51636700   -0.87844200
 H                  4.30876800    3.80378700   -1.08903100
 H                  4.06884900    2.18494500   -1.74773100
 C                  6.01755900    2.84742600    1.62884900
 H                  4.30563900    4.15022500    1.45817900
 H                  4.02720100    2.76875000    2.51651200
 C                  6.67827200    3.25015600    0.30507800
 H                  6.49227800    2.83728700   -1.82042700
 H                  6.23414900    1.44086700   -0.78416100
 H                  6.45276100    3.40831400    2.46156400
 H                  6.21431800    1.78578000    1.82385100
 H                  7.75339900    3.04979000    0.33976200
 H                  6.56050500    4.33168200    0.16199800
 H                 -3.45550900    0.69606700    0.30997700
 C                 -5.41213742   -2.56040817   -0.80950137
 H                 -6.10739594   -3.31303489   -1.11783333
 H                 -5.93441090   -1.64351696   -0.63218546
 H                 -4.68256925   -2.41242535   -1.57809187
 C                 -5.46556914   -2.35150065    1.65448704
 H                 -5.90339966   -1.43281106    1.32401180
 H                 -6.23559743   -3.01047815    1.99756878
 H                 -4.78279877   -2.15381547    2.45426526
 C                 -4.82842355   -4.54011340    0.61060385
 H                 -4.34724391   -5.00473483   -0.22455667
 H                 -4.35874613   -4.86121229    1.51680395
 H                 -5.86167726   -4.81765469    0.62665377
 C                 -0.03803048   -5.13861041    1.64932029
 H                 -0.75485584   -5.85683839    1.30989434
 H                  0.87904104   -5.63542224    1.88818810
 H                 -0.41349498   -4.64444345    2.52094259
 C                  0.21766710   -4.87722398   -0.79055133
 H                  1.13887156   -5.41262927   -0.88865095
 H                 -0.59937876   -5.56801446   -0.80257493
 H                  0.11595012   -4.19028848   -1.60459880
 C                  1.60279210   -3.46602211    0.73948320
 H                  1.83406788   -2.84287514   -0.09902700
 H                  1.60005248   -2.87617135    1.63221416
 H                  2.33908922   -4.23777023    0.82416728

radii=bondi
dis
rep
cav











