%chk=cyclohexyl-triBIP-E2PT.chk
%mem=10GB
%nprocshared=16
#p opt=tight freq=internalmodes b3lyp/6-31g(d,p)
scrf=(cpcm,solvent=dichloromethane,read) nosymm empiricaldispersion=gd3bj
int=grid=ultrafine

cyclohexylimine triBIP oxidized, first two protons transferred optimization

1 2
 C                  1.63976500    0.42398500    0.89752500
 C                  0.55047900    1.26104100    0.60844100
 C                  0.71228000    2.63720800    0.45715700
 C                  2.00695300    3.13060400    0.60910500
 C                  3.09725500    2.29532400    0.90363400
 C                  2.94330600    0.91325600    1.05763000
 C                 -0.18399000   -0.84961200    0.77141800
 H                 -0.12425800    3.28462300    0.23167400
 H                  2.18092900    4.19346700    0.49587600
 H                  4.08327500    2.73214700    1.00394900
 C                 -2.47278400   -1.73899700    0.55031200
 C                 -3.37577600   -2.83284400    0.57624500
 C                 -2.96079700   -4.13911400    0.82747100
 C                 -1.59926000   -4.33743800    1.05562700
 C                 -0.68254300   -3.27634700    1.03662600
 C                 -1.09712600   -1.96238000    0.78816500
 C                 -4.42335900   -0.93025300    0.12307000
 H                 -3.66286100   -4.96321100    0.84514900
 H                 -1.23481800   -5.33725900    1.25481700
 H                  0.36443900   -3.48237200    1.22024900
 N                 -0.55609900    0.42652300    0.54206800
 C                 -6.87754700   -0.56969700   -0.36408800
 C                 -5.51799600   -0.03870100   -0.20587900
 C                 -5.28581700    1.31641400   -0.37633900
 C                 -6.32437400    2.20304700   -0.70848200
 C                 -7.64122600    1.70192000   -0.86630700
 C                 -7.94113200    0.37055600   -0.71171600
 H                 -4.27831300    1.69591000   -0.25364800
 H                 -8.43340200    2.39998300   -1.11684500
 C                 -6.04777800    3.65886300   -0.92241300
 H                 -5.12514700    3.96442400   -0.42727100
 H                 -5.93835400    3.86649400   -1.99348300
 H                 -6.87490800    4.27243200   -0.55902900
 C                 -9.32278300   -0.17690200   -0.87739600
 H                 -9.35560200   -0.90241500   -1.69611800
 H                 -9.63592700   -0.71261500    0.02308500
 H                -10.03553200    0.62142900   -1.08339800
 O                 -7.14544000   -1.78988300   -0.21063000
 N                 -3.13948300   -0.57162700    0.27046500
 N                 -4.59922100   -2.27397700    0.30399300
 N                  1.14616800   -0.86414200    0.98468700
 C                  4.01913000   -0.01173200    1.37094300
 N                  3.86260900   -1.33410500    1.40948700
 N                  5.30590900    0.36599500    1.65666100
 C                  7.36922800   -0.96535300    2.24686600
 C                  7.77370000   -2.29351700    2.41513800
 C                  6.88121200   -3.36872000    2.24793200
 C                  5.54583800   -3.16571200    1.90803600
 C                  5.10995500   -1.84505500    1.73267600
 C                  6.02327100   -0.77892200    1.89619000
 H                  8.80409700   -2.49370800    2.68843300
 H                  7.24563900   -4.37890600    2.39099200
 H                  4.86081700   -3.99635800    1.78855100
 C                  8.27672300    0.16261300    2.45022600
 H                  9.30751000   -0.10119600    2.70016300
 N                  7.86756300    1.37247300    2.35193300
 C                  8.79192100    2.48529000    2.57295100
 C                 10.24024100    2.13263200    2.92937800
 C                  8.74379600    3.40864300    1.34389500
 H                  8.36808500    3.05285300    3.41433100
 C                 11.07373800    3.39887200    3.15708300
 H                 10.67951100    1.54983900    2.11045200
 H                 10.26667300    1.49944600    3.82156200
 C                  9.58079900    4.67282300    1.56401200
 H                  9.12890100    2.85248200    0.48015600
 H                  7.70194900    3.66254800    1.12556200
 C                 11.02632100    4.33083500    1.94164400
 H                 12.10769100    3.12427200    3.38762800
 H                 10.68675800    3.93229100    4.03442300
 H                  9.55905700    5.29714300    0.66579900
 H                  9.13027800    5.26357100    2.37130700
 H                 11.58948700    5.24668700    2.14643800
 H                 11.51463800    3.83750600    1.09194800
 H                 -1.53504000    0.65705300    0.35565700
 H                 -5.52069600   -2.69587000    0.21546200
 H                  1.76250300   -1.65380300    1.17268700
 H                  5.72369500    1.28664700    1.74435100

radii=bondi
dis
rep
cav







