%chk=cyclohexyl-diBIP-E1PT.chk
%mem=10GB
%nprocshared=16
#p opt=tight freq=internalmodes b3lyp/6-31g(d,p)
scrf=(cpcm,solvent=dichloromethane,read) nosymm empiricaldispersion=gd3bj
int=grid=ultrafine

cyclohexylimine diBIP oxidized, first proton transferred, optimization

1 2
C     1.544444     1.095848    -0.051665
C     0.306818     1.773909    -0.129153
C     0.283341     3.163491    -0.309520
C     1.504058     3.825007    -0.414714
C     2.727063     3.133936    -0.335477
C     2.783196     1.748067    -0.153649
C    -0.136172    -0.327905     0.129720
H    -0.656922     3.698350    -0.369246
H     1.517485     4.899365    -0.555490
H     3.657122     3.685289    -0.419961
C    -2.278139    -1.534629     0.220001
C    -3.070012    -2.691845     0.296456
C    -2.494973    -3.955313     0.440265
C    -1.104240    -3.998364     0.498552
C    -0.309799    -2.840712     0.406288
C    -0.876061    -1.571531     0.261253
C    -4.412252    -0.909159     0.085186
H    -3.098734    -4.850629     0.503063
H    -0.612829    -4.956133     0.615141
H     0.767604    -2.940784     0.451601
N    -0.726106     0.859064    -0.008890
C    -6.909029    -0.772199    -0.154003
C    -5.606002    -0.103524    -0.025275
C    -5.520727     1.272420    -0.000232
C    -6.673547     2.081028    -0.101259
C    -7.927450     1.449850    -0.244850
C    -8.098564     0.078571    -0.273781
H    -4.556271     1.751700     0.112747
H    -8.799574     2.078725    -0.328449
C    -6.524791     3.594508    -0.016874
C    -9.475988    -0.559735    -0.419910
O    -6.981423    -2.027034    -0.159084
N    -3.138042    -0.464939     0.095951
N    -4.379568    -2.251662     0.204315
H    -2.770430     0.483759     0.010548
N     1.231225    -0.230038     0.114239
H     1.944620    -0.947666     0.182051
C     4.047556     1.024336    -0.068581
H     4.949837     1.638520    -0.158411
N     4.087581    -0.246382     0.097765
C     5.415473    -0.878413     0.168648
C     6.217129    -0.698209    -1.131580
C     6.229553    -0.391763     1.379498
H     5.235956    -1.951702     0.300747
C     7.570612    -1.411486    -1.049254
H     6.378877     0.373159    -1.301227
H     5.630530    -1.072105    -1.975971
C     7.582746    -1.106709     1.458285
H     6.392408     0.688626     1.285396
H     5.652759    -0.551300     2.295287
C     8.380126    -0.933134     0.161113
H     8.130810    -1.249016    -1.974941
H     7.404253    -2.492910    -0.965717
H     8.152511    -0.730039     2.313102
H     7.414700    -2.176397     1.637091
H     9.328228    -1.476161     0.222484
H     8.628185     0.127906     0.030297
H    -5.252851    -2.776503     0.177687
C    -7.858748     4.325319    -0.216881
H    -7.692620     5.402336    -0.147339
H    -8.290298     4.112548    -1.198198
H    -8.589063     4.050968     0.548364
C    -5.529280     4.073943    -1.094980
H    -4.542725     3.622441    -0.968839
H    -5.894081     3.835512    -2.096744
H    -5.412991     5.157927    -1.018992
C    -5.967030     3.945125     1.381647
H    -6.652995     3.619136     2.166971
H    -4.997045     3.474413     1.557188
H    -5.839563     5.027547     1.462989
C    -9.515274    -1.398385    -1.717217
H    -8.772271    -2.194523    -1.693536
H   -10.506821    -1.845005    -1.828421
H    -9.325704    -0.767566    -2.589450
C   -10.588152     0.496896    -0.495892
H   -10.613857     1.121144     0.400776
H   -10.478054     1.148368    -1.366656
H   -11.550965    -0.011790    -0.580254
C    -9.768528    -1.463580     0.800807
H   -10.765138    -1.899004     0.690154
H    -9.039638    -2.267402     0.883948
H    -9.755842    -0.877188     1.723194

radii=bondi
dis
rep
cav





