%chk=cyclohexyl-monoBIP-E0PT.chk
%mem=10GB
%nprocshared=16
#p opt=tight freq=internalmodes b3lyp/6-31g(d,p)
scrf=(cpcm,solvent=dichloromethane,read) nosymm empiricaldispersion=gd3bj
int=grid=ultrafine

cyclohexylimine monoBIP oxidized but no PT optimization

1 2
C    -0.439439     2.706700     0.233437
C    -1.853310     2.850425     0.181337
C    -2.429226     4.130549     0.090659
C    -1.563900     5.212024     0.063516
C    -0.157618     5.052286     0.121858
C     0.445060     3.799183     0.207638
C    -1.402747     0.722164     0.305221
H    -3.503059     4.256794     0.044721
H    -1.968019     6.214716    -0.002499
H     0.472399     5.934039     0.100720
N    -2.415279     1.603313     0.228743
C    -2.999649    -1.174787     0.386002
C    -1.621064    -0.695106     0.370598
C    -0.574463    -1.613384     0.410637
C    -0.831237    -2.980677     0.474550
C    -2.191579    -3.420843     0.513388
C    -3.278998    -2.583329     0.479798
H     0.445113    -1.255714     0.389146
H    -2.365062    -4.484470     0.574651
C     0.269737    -4.027585     0.492356
C    -4.717359    -3.103365     0.531321
O    -3.988373    -0.329444     0.309941
H    -3.605028     0.640680     0.257615
N    -0.193792     1.365942     0.309554
H     0.759383     1.012908     0.363184
C     1.893311     3.609599     0.268700
H     2.499635     4.519893     0.229761
N     2.395103     2.434919     0.362534
C     3.858522     2.306050     0.420648
C     4.523198     2.728346    -0.900438
C     4.480822     3.069457     1.601498
H     4.060453     1.239360     0.569812
C     6.037374     2.498323    -0.842441
H     4.315093     3.791486    -1.070853
H     4.076669     2.173455    -1.730840
C     5.994037     2.833816     1.663333
H     4.288400     4.141432     1.475246
H     3.996323     2.762431     2.532844
C     6.669575     3.231845     0.345639
H     6.501605     2.815721    -1.780938
H     6.229192     1.422411    -0.744130
H     6.422658     3.395080     2.499213
H     6.185833     1.772063     1.862442
H     7.743457     3.026827     0.391649
H     6.557743     4.313670     0.199749
C    -5.445868    -2.513318     1.759568
H    -5.512580    -1.427381     1.707420
H    -6.459873    -2.919013     1.801484
H    -4.930294    -2.789109     2.682988
C    -4.745122    -4.634510     0.658225
H    -5.784166    -4.965057     0.709218
H    -4.278360    -5.125190    -0.199972
H    -4.238944    -4.972103     1.566424
C    -5.460763    -2.714372    -0.765991
H    -5.548324    -1.633979    -0.873542
H    -4.938029    -3.110778    -1.640020
H    -6.466523    -3.141703    -0.745001
C     0.115342    -4.901014     1.758251
H    -0.853388    -5.403226     1.792660
H     0.893232    -5.668769     1.758509
H     0.224071    -4.298246     2.662556
C     1.671191    -3.405324     0.488872
H     1.842974    -2.805154    -0.407898
H     1.833024    -2.775729     1.367263
H     2.417216    -4.202659     0.504651
C     0.113222    -4.917392    -0.763089
H     0.882660    -5.693531    -0.748734
H    -0.862463    -5.406458    -0.794663
H     0.233537    -4.328000    -1.674795

radii=bondi
dis
rep
cav




