%chk=cyclohexyl-monoBIP-E0PT.chk
%mem=10GB
%nprocshared=16
#p opt=tight freq=internalmodes b3lyp/6-31g(d,p)
scrf=(cpcm,solvent=dichloromethane,read) nosymm empiricaldispersion=gd3bj
int=grid=ultrafine

cyclohexylimine monoBIP oxidized but no PT optimization

1 2
 C                 -0.44168400    2.68213100    0.27144000
 C                 -1.85688200    2.81852400    0.23400700
 C                 -2.43904300    4.09643000    0.14959700
 C                 -1.57883900    5.18172600    0.11243200
 C                 -0.17103400    5.02851000    0.15383400
 C                  0.43780200    3.77800900    0.23387800
 C                 -1.39395800    0.69425400    0.34877400
 H                 -3.51391900    4.21818400    0.11548400
 H                 -1.98799800    6.18262100    0.05037500
 H                  0.45484500    5.91295800    0.12369700
 N                 -2.41331800    1.56873900    0.28460600
 C                 -2.98246600   -1.20106300    0.41131600
 C                 -1.60766100   -0.72318400    0.40428800
 C                 -0.57336000   -1.65491300    0.43853400
 C                 -0.84467100   -3.02323800    0.48626800
 C                 -2.20174200   -3.46946900    0.50850700
 C                 -3.26602900   -2.60585600    0.47329600
 H                  0.45599100   -1.31914700    0.42434800
 H                 -2.38836000   -4.53672600    0.55350400
 C                  0.25632900   -4.03100900    0.51182200
 H                  1.23663000   -3.55878800    0.46166500
 H                  0.19930300   -4.63211600    1.42541600
 H                  0.15280100   -4.72928700   -0.32480300
 C                 -4.69333200   -3.05752000    0.48673900
 H                 -5.23537100   -2.61176500    1.32493600
 H                 -5.20710200   -2.74566200   -0.42688300
 H                 -4.74827900   -4.14269200    0.56818700
 O                 -3.99139400   -0.37831000    0.35816200
 H                 -3.62275300    0.59408100    0.31647600
 N                 -0.18848600    1.34264800    0.34397500
 H                  0.76678600    0.99324400    0.38612000
 C                  1.88738200    3.59214800    0.27619500
 H                  2.49127600    4.50357900    0.22817700
 N                  2.39229800    2.41853500    0.36677200
 C                  3.85604600    2.29104900    0.41073400
 C                  4.50992800    2.71524000   -0.91486100
 C                  4.48672800    3.05207700    1.58862500
 H                  4.06023400    1.22445300    0.55629700
 C                  6.02464700    2.48526300   -0.86815100
 H                  4.30064200    3.77851100   -1.08261700
 H                  4.05690300    2.16070100   -1.74206300
 C                  6.00020900    2.81558000    1.63890100
 H                  4.29364000    4.12440200    1.46584900
 H                  4.00798200    2.74328700    2.52243900
 C                  6.66518700    3.21676600    0.31681100
 H                  6.48239700    2.80464700   -1.80916200
 H                  6.21735900    1.40913200   -0.77343100
 H                  6.43538900    3.37467000    2.47282800
 H                  6.19310700    1.75323000    1.83387100
 H                  7.73956900    3.01285200    0.35384900
 H                  6.55121900    4.29875700    0.17391600

radii=bondi
dis
rep
cav


