%chk=cyclohexyl-triBIP-E1PT.chk
%mem=10GB
%nprocshared=16
#p opt=tight freq=internalmodes b3lyp/6-31g(d,p)
scrf=(cpcm,solvent=dichloromethane,read) nosymm empiricaldispersion=gd3bj
int=grid=ultrafine

cyclohexylimine triBIP oxidized, first proton transferred, optimization

1 2
C     1.614818     0.282627     1.100885
C     0.502034     1.104017     0.804260
C     0.671430     2.487187     0.666582
C     1.955450     3.000160     0.831843
C     3.053257     2.173616     1.128240
C     2.912820     0.788288     1.271898
C    -0.223264    -0.930651     0.924481
H    -0.170610     3.128586     0.436262
H     2.119819     4.065997     0.727709
H     4.033659     2.622101     1.239217
C    -2.479832    -1.867573     0.625041
C    -3.412589    -2.917878     0.594322
C    -3.031369    -4.236387     0.846412
C    -1.684850    -4.445864     1.130148
C    -0.747997    -3.395770     1.159297
C    -1.120972    -2.072627     0.910250
C    -4.469599    -0.999374     0.122399
H    -3.746461    -5.047841     0.824541
H    -1.340594    -5.451812     1.334333
H     0.286384    -3.623297     1.384761
N    -0.632666     0.317215     0.701607
C    -6.872153    -0.579853    -0.465546
C    -5.515644    -0.068545    -0.222772
C    -5.236838     1.283149    -0.323869
C    -6.236085     2.204172    -0.679804
C    -7.543716     1.716751    -0.939379
C    -7.902614     0.391281    -0.853932
H    -4.234608     1.638647    -0.127999
H    -8.295693     2.439270    -1.221849
C    -5.964078     3.697789    -0.796750
C    -9.317265    -0.089539    -1.161010
O    -7.121439    -1.805401    -0.345647
N    -3.166989    -0.710007     0.331263
N    -4.624596    -2.329462     0.280443
H    -2.679925     0.186609     0.297035
N     1.123094    -0.998071     1.169303
H     1.715929    -1.800816     1.352708
C     4.009926    -0.113372     1.578573
N     3.892136    -1.438997     1.642873
N     5.294175     0.303186     1.828151
C     7.412625    -0.958356     2.371427
C     7.861457    -2.272179     2.547462
C     6.994118    -3.373103     2.428975
C     5.642445    -3.212378     2.127892
C     5.162490    -1.908751     1.944174
C     6.051020    -0.815833     2.064196
H     8.907548    -2.438242     2.781228
H     7.390754    -4.370744     2.576430
H     4.979518    -4.064926     2.041358
H     5.690206     1.235712     1.873938
C     8.297255     0.198499     2.500148
H     9.343501    -0.026871     2.723219
N     7.853001     1.391601     2.358761
C     8.749462     2.540516     2.477259
C    10.228511     2.256381     2.763591
C     8.599164     3.399020     1.210097
H     8.353245     3.134371     3.313581
C    11.021121     3.564095     2.883607
H    10.643520     1.651736     1.947126
H    10.331615     1.669549     3.682186
C     9.393760     4.703464     1.321611
H     8.961547     2.815735     0.354690
H     7.537440     3.600019     1.036853
C    10.870127     4.430282     1.628524
H    12.076739     3.342676     3.068786
H    10.658529     4.124405     3.754304
H     9.295570     5.279801     0.396367
H     8.965872     5.316160     2.125055
H    11.414531     5.372153     1.749690
H    11.322384     3.906957     0.776706
H    -5.548068    -2.741786     0.151898
C    -9.269720    -1.091598    -2.338210
H    -8.694501    -1.977829    -2.074183
H   -10.287949    -1.396386    -2.594911
H    -8.819316    -0.627072    -3.219386
C   -10.238213     1.073087    -1.559592
H   -11.233422     0.676180    -1.769253
H   -10.333176     1.810993    -0.758098
H    -9.884748     1.585385    -2.458161
C    -9.922242    -0.770647     0.087458
H    -9.338158    -1.639292     0.386841
H    -9.964608    -0.069441     0.924968
H   -10.942681    -1.092118    -0.137631
C    -6.268414     4.142902    -2.245038
H    -7.302712     3.931266    -2.524587
H    -6.107325     5.220119    -2.334260
H    -5.609208     3.636346    -2.953793
C    -6.896270     4.453623     0.176816
H    -6.728927     5.528816     0.074764
H    -7.949443     4.255240    -0.032208
H    -6.690565     4.168717     1.211182
C    -4.510266     4.058134    -0.461133
H    -4.252692     3.777272     0.563401
H    -3.805040     3.574602    -1.142038
H    -4.378624     5.137877    -0.556697

radii=bondi
dis
rep
cav







