%chk=cyclohexyl-diBIP-E2PT.chk
%mem=10GB
%nprocshared=16
#p opt=tight freq=internalmodes b3lyp/6-31g(d,p)
scrf=(cpcm,solvent=dichloromethane,read) nosymm empiricaldispersion=gd3bj
int=grid=ultrafine

cyclohexylimine diBIP oxidized, first and second proton transferred,
optimization

1 2
C     1.534152     1.142324    -0.140102
C     0.315024     1.827813    -0.253789
C     0.273383     3.207211    -0.458283
C     1.500366     3.861095    -0.548968
C     2.720727     3.171845    -0.431617
C     2.773443     1.789938    -0.226393
C    -0.108696    -0.350362     0.055371
H    -0.665880     3.737220    -0.545728
H     1.516647     4.932362    -0.707593
H     3.651426     3.722646    -0.502540
C    -2.278103    -1.507903     0.168368
C    -3.037889    -2.700358     0.275057
C    -2.441462    -3.949888     0.433629
C    -1.046816    -3.985526     0.481734
C    -0.270703    -2.823556     0.364513
C    -0.865948    -1.566600     0.204384
C    -4.348954    -0.922041     0.052810
H    -3.031374    -4.853872     0.517323
H    -0.546392    -4.937090     0.610177
H     0.808606    -2.905737     0.401659
N    -0.671794     0.862816    -0.120675
C    -6.873593    -0.783310    -0.132784
C    -5.561364    -0.128730    -0.042344
C    -5.467298     1.248996    -0.035201
C    -6.611719     2.065601    -0.106058
C    -7.877779     1.444124    -0.211077
C    -8.059005     0.075982    -0.227846
H    -4.485266     1.698438     0.040529
H    -8.747942     2.078416    -0.273802
C    -6.449958     3.581379    -0.067918
C    -9.447241    -0.551184    -0.337228
O    -6.962604    -2.039846    -0.127272
N    -3.106238    -0.421568     0.035116
N    -4.344609    -2.281823     0.191841
N     1.230478    -0.192236     0.047302
H     1.969164    -0.885638     0.148499
C     4.030017     1.054853    -0.097685
H     4.940918     1.656203    -0.174958
N     4.041871    -0.212232     0.091526
C     5.353621    -0.871239     0.208093
C     6.194495    -0.717633    -1.070959
C     6.137891    -0.383605     1.438357
H     5.147609    -1.938469     0.345939
C     7.534881    -1.447358    -0.941699
H     6.376797     0.348971    -1.247381
H     5.625591    -1.091907    -1.927137
C     7.479035    -1.114437     1.560968
H     6.316958     0.693719     1.338187
H     5.531675    -0.526341     2.337963
C     8.315026    -0.962837     0.285327
H     8.122476    -1.304711    -1.853702
H     7.352472    -2.525325    -0.848691
H     8.029571    -0.737285     2.427882
H     7.293510    -2.180310     1.743737
H     9.255063    -1.514912     0.379867
H     8.578240     0.093933     0.149791
H    -5.211757    -2.810985     0.188424
H    -1.691094     0.960486    -0.139300
C    -9.526986    -1.400333    -1.625318
H    -8.793252    -2.205120    -1.608907
H   -10.526354    -1.835261    -1.712984
H    -9.346307    -0.780987    -2.507921
C    -5.622681     4.022824    -1.295346
H    -5.484867     5.107205    -1.271163
H    -4.635662     3.554028    -1.302559
H    -6.134537     3.760830    -2.224547
C   -10.551806     0.514719    -0.396956
H   -10.553540     1.146178     0.495212
H   -10.455312     1.159320    -1.274672
H   -11.521080     0.014450    -0.455822
C    -9.722312    -1.442671     0.895990
H    -8.999774    -2.253509     0.967525
H    -9.681236    -0.850621     1.814098
H   -10.726129    -1.868667     0.814360
C    -7.798505     4.312816    -0.087583
H    -8.356776     4.101101    -1.002766
H    -8.417173     4.031183     0.768407
H    -7.625664     5.389854    -0.039279
C    -5.695445     3.974894     1.220631
H    -6.248879     3.660527     2.108856
H    -4.700894     3.525301     1.259098
H    -5.577411     5.061099     1.256605

radii=bondi
dis
rep
cav







