%chk=cyclohexyl-diBIP-E2PT.chk
%mem=10GB
%nprocshared=16
#p opt=tight freq=internalmodes b3lyp/6-31g(d,p)
scrf=(cpcm,solvent=dichloromethane,read) nosymm empiricaldispersion=gd3bj
int=grid=ultrafine

cyclohexylimine diBIP oxidized, first and second proton transferred,
optimization

1 2
 C                  1.53640900    1.14546200    0.16108500
 C                  0.32048800    1.84478100    0.13093400
 C                  0.28353500    3.23608500    0.03511700
 C                  1.51230400    3.88831000   -0.03625600
 C                  2.72964000    3.18532900   -0.01175200
 C                  2.77775300    1.79106000    0.08759400
 C                 -0.11351900   -0.34854900    0.26908500
 H                 -0.65334800    3.77663200    0.01343200
 H                  1.53222300    4.96825800   -0.11263900
 H                  3.66154500    3.73567000   -0.07265400
 C                 -2.29229500   -1.49242400    0.28384400
 C                 -3.06490200   -2.68058700    0.32754800
 C                 -2.48241200   -3.94134700    0.44333500
 C                 -1.08936900   -3.99243300    0.50890800
 C                 -0.30036700   -2.83430600    0.45626700
 C                 -0.88110000   -1.56569200    0.34158200
 C                 -4.35446100   -0.88367900    0.14284200
 H                 -3.08157600   -4.84232000    0.47889400
 H                 -0.60019400   -4.95395600    0.60057200
 H                  0.77714600   -2.92939000    0.51025400
 N                 -0.67063100    0.87809700    0.20306800
 C                 -6.87020100   -0.74412000   -0.09184700
 C                 -5.56041800   -0.08951000    0.00753700
 C                 -5.47572300    1.29006500   -0.03993100
 C                 -6.62196700    2.09323300   -0.19765900
 C                 -7.88798300    1.47422500   -0.31460600
 C                 -8.04512600    0.10778100   -0.25993200
 H                 -4.50229000    1.75954400    0.04308000
 H                 -8.76215300    2.10386100   -0.43946600
 C                 -6.49194400    3.58467200   -0.24924900
 C                 -9.38269000   -0.55321500   -0.35646800
 O                 -7.00057100   -1.99477000   -0.03517900
 N                 -3.10831600   -0.39351100    0.17510600
 N                 -4.36588500   -2.24744700    0.23503600
 N                  1.22675800   -0.19831900    0.24893300
 H                  1.96174300   -0.90225500    0.26737100
 C                  4.03170000    1.04112400    0.10375100
 H                  4.94441200    1.63949100    0.02363300
 N                  4.04250400   -0.23677500    0.19698500
 C                  5.35628600   -0.90391700    0.17585000
 C                  6.07130300   -0.69040100   -1.16909400
 C                  6.25506300   -0.46854500    1.34555400
 H                  5.15847800   -1.97555100    0.28738000
 C                  7.42421800   -1.40849400   -1.20406600
 H                  6.22486400    0.38621900   -1.31084600
 H                  5.42635900   -1.03406300   -1.98371000
 C                  7.60629200   -1.19087500    1.30595900
 H                  6.42038600    0.61296700    1.28057400
 H                  5.74012000   -0.66082000    2.29171900
 C                  8.31662800   -0.97768600   -0.03522500
 H                  7.92068600   -1.20996300   -2.15916900
 H                  7.26038100   -2.49186400   -1.14997900
 H                  8.23308800   -0.84225900    2.13271500
 H                  7.44607500   -2.26533300    1.46128800
 H                  9.26084800   -1.53032000   -0.05614100
 H                  8.56600100    0.08518900   -0.14613900
 H                 -5.23972300   -2.76660400    0.20563100
 H                 -1.69003700    0.98008200    0.18900700
 C                 -9.41145607   -1.57009444   -1.51263785
 H                 -9.19170298   -2.54656957   -1.13434579
 H                -10.38253248   -1.57188179   -1.96197893
 H                 -8.68011952   -1.29836475   -2.24490134
 C                 -5.74703942    4.01431164   -1.52679624
 H                 -6.12566733    4.95792506   -1.86016482
 H                 -4.70156497    4.10342980   -1.31717485
 H                 -5.89632261    3.28009574   -2.29069515
 C                -10.49403157    0.49095241   -0.57148972
 H                -10.50012611    1.17920399    0.24776154
 H                -10.31278710    1.02231499   -1.48237075
 H                -11.44134709   -0.00316914   -0.62925809
 C                 -9.69170889   -1.34421915    0.92821864
 H                 -9.31896022   -2.34245153    0.83079924
 H                 -9.22093091   -0.86753697    1.76251007
 H                -10.74994342   -1.37226251    1.08395318
 C                 -7.87060104    4.27079585   -0.23746701
 H                 -8.40875896    4.00519970   -1.12332520
 H                 -8.42051445    3.95158936    0.62311562
 H                 -7.74042737    5.33232076   -0.20400525
 C                 -5.66648726    4.10259863    0.94321617
 H                 -5.97261502    3.59718244    1.83525892
 H                 -4.62791713    3.91586495    0.76600831
 H                 -5.82539825    5.15460651    1.05691191

radii=bondi
dis
rep
cav







