%chk=cyclohexyl-monoBIP-E2PT.chk
%mem=10GB
%nprocshared=16
#p opt=tight freq=internalmodes b3lyp/6-31g(d,p)
scrf=(cpcm,solvent=dichloromethane,read) nosymm empiricaldispersion=gd3bj
int=grid=ultrafine

cyclohexylimine monoBIP oxidized, with both protons transferred
optimization

1 2
C    -0.528073     2.742572     0.404197
C    -1.921436     2.980419     0.301064
C    -2.451704     4.265809     0.212852
C    -1.550554     5.334546     0.236214
C    -0.170901     5.128033     0.341490
C     0.373135     3.833989     0.422135
C    -1.476384     0.809681     0.407582
H    -3.518023     4.431858     0.127295
H    -1.930374     6.346308     0.172118
H     0.499623     5.979267     0.359395
N    -2.483178     1.726588     0.306580
C    -3.060964    -1.168598     0.322868
C    -1.700320    -0.624250     0.437828
C    -0.618761    -1.472146     0.564038
C    -0.778274    -2.871255     0.591400
C    -2.082512    -3.404573     0.481720
C    -3.216356    -2.628047     0.346212
H     0.371068    -1.041120     0.641954
H    -2.192376    -4.477493     0.503258
C     0.459199    -3.752098     0.713784
C    -4.606812    -3.245875     0.216236
O    -4.050358    -0.398428     0.206418
N    -0.270650     1.400503     0.468577
C     1.787972     3.650514     0.503480
H     2.430179     4.524088     0.516824
N     2.355102     2.483039     0.555389
C     3.811698     2.240422     0.578233
C     4.374110     2.283257    -0.851756
C     4.545498     3.216531     1.502221
H     3.920675     1.227482     0.972873
C     5.881885     2.008778    -0.845664
H     4.175034     3.277269    -1.268103
H     3.849587     1.555510    -1.476661
C     6.049534     2.919561     1.503417
H     4.393648     4.242088     1.149431
H     4.129611     3.150194     2.510928
C     6.626406     2.971977     0.084535
H     6.267702     2.081106    -1.866169
H     6.056732     0.978853    -0.512923
H     6.556979     3.637847     2.153217
H     6.224463     1.925172     1.931036
H     7.692933     2.730728     0.101749
H     6.537202     3.994116    -0.303449
H    -3.454655     1.434506     0.245286
H     1.725533     1.671887     0.519365
C    -5.220585    -2.855122    -1.147165
H    -6.215850    -3.299278    -1.235630
H    -5.310687    -1.774484    -1.246725
H    -4.606579    -3.232660    -1.969068
C    -5.513324    -2.742357     1.361939
H    -5.640604    -1.662598     1.314981
H    -6.494929    -3.217532     1.282137
H    -5.085021    -3.003350     2.333502
C    -4.556574    -4.779951     0.292061
H    -3.953177    -5.208439    -0.512409
H    -4.152113    -5.123254     1.247789
H    -5.571438    -5.171520     0.195653
C     0.118948    -5.247457     0.757546
H    -0.501333    -5.496081     1.622661
H    -0.404050    -5.567051    -0.147173
H     1.043267    -5.824453     0.831086
C     1.222104    -3.377016     2.002363
H     2.122267    -3.991682     2.082176
H     1.527087    -2.328136     1.998990
H     0.606277    -3.554211     2.887099
C     1.365468    -3.482177    -0.508343
H     0.854895    -3.749925    -1.436629
H     1.651813    -2.429646    -0.565562
H     2.276450    -4.081239    -0.430712

radii=bondi
dis
rep
cav









