%chk=cyclohexyl-monoBIP-neutral.chk
%mem=10GB
%nprocshared=16
#p opt=tight freq=internalmodes b3lyp/6-31g(d,p)
scrf=(cpcm,solvent=dichloromethane,read) nosymm empiricaldispersion=gd3bj
int=grid=ultrafine

cyclohexylimine monoBIP neutral optimization

0 1
C    -0.483053     2.715584     0.416145
C    -1.881052     2.898359     0.327601
C    -2.412894     4.190122     0.243421
C    -1.520456     5.261988     0.256277
C    -0.133595     5.064531     0.350314
C     0.427051     3.782688     0.429804
C    -1.518543     0.752015     0.424651
H    -3.482079     4.346339     0.169021
H    -1.905266     6.273153     0.194132
H     0.529539     5.922761     0.360617
N    -2.496427     1.656282     0.336302
C    -3.063668    -1.189037     0.352314
C    -1.739219    -0.685003     0.447265
C    -0.658724    -1.573623     0.540497
C    -0.848757    -2.950289     0.541355
C    -2.167874    -3.417641     0.446447
C    -3.286126    -2.585001     0.353326
H     0.347044    -1.175374     0.612680
H    -2.332312    -4.483825     0.445491
C     0.361420    -3.887798     0.614442
C    -4.705200    -3.167413     0.253385
O    -4.117255    -0.346876     0.257497
H    -3.767809     0.591511     0.268641
N    -0.287014     1.356600     0.476439
H     0.638260     0.947632     0.528152
C     1.869640     3.577070     0.516071
H     2.471751     4.490981     0.533986
N     2.383342     2.403646     0.562666
C     3.846217     2.273148     0.605015
C     4.417796     2.330347    -0.823282
C     4.574369     3.275291     1.514632
H     4.045818     1.268606     0.997125
C     5.930590     2.085737    -0.826620
H     4.198843     3.321293    -1.239881
H     3.906197     1.596844    -1.453374
C     6.083737     3.008000     1.520530
H     4.402404     4.296059     1.156042
H     4.163006     3.214757     2.526856
C     6.660178     3.063293     0.101127
H     6.316771     2.164127    -1.847368
H     6.127826     1.059566    -0.492795
H     6.585310     3.735122     2.166713
H     6.276761     2.017185     1.950502
H     7.732058     2.843665     0.116826
H     6.551014     4.082402    -0.290657
C     1.245777    -3.654521    -0.627285
H     1.575562    -2.614306    -0.683508
H     2.133816    -4.292376    -0.588643
H     0.697384    -3.887082    -1.544179
C     1.182786    -3.575549     1.880731
H     0.588653    -3.743887     2.782861
H     2.064321    -4.221634     1.926387
H     1.524899    -2.537627     1.887374
C    -0.049460    -5.366088     0.652100
H    -0.664682    -5.591665     1.527396
H    -0.608161    -5.652070    -0.243331
H     0.845240    -5.991639     0.701283
C    -5.359002    -2.732161    -1.075251
H    -6.372934    -3.138229    -1.139958
H    -5.413698    -1.647265    -1.155355
H    -4.786354    -3.113816    -1.925275
C    -5.557474    -2.682549     1.445687
H    -5.658132    -1.598206     1.446625
H    -6.556546    -3.125767     1.394151
H    -5.097957    -2.986879     2.390277
C    -4.694231    -4.704659     0.283816
H    -4.126052    -5.123400    -0.551056
H    -4.268835    -5.089758     1.214382
H    -5.721459    -5.069139     0.207540

radii=bondi
dis
rep
cav





