%chk=cyclohexyl-monoBIP-neutral.chk
%mem=10GB
%nprocshared=16
#p opt=tight freq=internalmodes b3lyp/6-31g(d,p)
scrf=(cpcm,solvent=dichloromethane,read) nosymm empiricaldispersion=gd3bj
int=grid=ultrafine

cyclohexylimine monoBIP neutral optimization

0 1
 C                 -0.46401600    2.68790700    0.30291800
 C                 -1.86559200    2.86169400    0.26695800
 C                 -2.40612800    4.15085300    0.19417700
 C                 -1.51927000    5.22726300    0.16518300
 C                 -0.12823100    5.03780000    0.20066400
 C                  0.44092000    3.75929400    0.26813400
 C                 -1.48608500    0.71971000    0.36879800
 H                 -3.47818600    4.30209700    0.16241700
 H                 -1.91162100    6.23610100    0.11298800
 H                  0.53032600    5.89928800    0.17620900
 N                 -2.47353400    1.61652300    0.30846400
 C                 -3.02750500   -1.21427700    0.36500200
 C                 -1.70217200   -0.71610200    0.41777600
 C                 -0.62863100   -1.61999900    0.49939800
 C                 -0.83819100   -2.99414800    0.53310200
 C                 -2.16213200   -3.45784500    0.47675700
 C                 -3.25718600   -2.60175000    0.39629500
 H                  0.38567300   -1.23676900    0.54236300
 H                 -2.34228500   -4.52854100    0.50125800
 C                  0.31600300   -3.96056300    0.62940000
 H                  1.05119000   -3.78901800   -0.16209900
 H                  0.84245200   -3.86088900    1.58388800
 H                 -0.03413600   -4.99145500    0.54816600
 C                 -4.66791900   -3.11878400    0.33948400
 H                 -5.27360000   -2.70351500    1.15018900
 H                 -5.15951400   -2.83337300   -0.59569100
 H                 -4.68347700   -4.20690500    0.41846600
 O                 -4.10482100   -0.40263400    0.28475800
 H                 -3.77383200    0.54022700    0.28035300
 N                 -0.25751000    1.33090900    0.36813600
 H                  0.67240900    0.92968100    0.39508100
 C                  1.88554300    3.55256300    0.29463800
 H                  2.49516200    4.46137000    0.24061200
 N                  2.39390200    2.37861800    0.37762400
 C                  3.85928400    2.26296700    0.40382400
 C                  4.49850600    2.69909400   -0.92481900
 C                  4.49839900    3.01984000    1.58009400
 H                  4.07513600    1.19715500    0.54110600
 C                  6.01567500    2.48271100   -0.89580100
 H                  4.27937400    3.76153000   -1.08518800
 H                  4.04171800    2.14564900   -1.75075800
 C                  6.01426100    2.79581500    1.61345600
 H                  4.29537900    4.09163800    1.46792200
 H                  4.03104900    2.70108500    2.51648700
 C                  6.66129000    3.21274300    0.28743300
 H                  6.46151900    2.81246700   -1.83920300
 H                  6.21981600    1.40781900   -0.80990300
 H                  6.45458800    3.35172300    2.44704700
 H                  6.21820500    1.73349300    1.79721900
 H                  7.73840300    3.02073200    0.31144500
 H                  6.53433900    4.29440000    0.15274700

radii=bondi
dis
rep
cav



