%chk=cyclohexyl-monoBIP-TS2_rev.chk
%mem=10GB
%nprocshared=16
#p opt=(calcfc,tight,ts,noeigentest) freq=internalmodes b3lyp/6-31g(d,p)
scrf=(cpcm,solvent=dichloromethane,read) nosymm 
empiricaldispersion=gd3bj int=grid=ultrafine

cyclohexylimine monoBIP oxidized, optimize to transition state of first
proton transferred

1 2
C    -0.498147     2.638743     0.225698
C    -1.923008     2.817001     0.174906
C    -2.489444     4.096753     0.093960
C    -1.628065     5.190551     0.075274
C    -0.231169     5.034390     0.136012
C     0.364842     3.768556     0.210522
C    -1.416699     0.716940     0.286937
H    -3.563281     4.230014     0.048930
H    -2.039417     6.190472     0.016933
H     0.402676     5.913131     0.126561
N    -2.474418     1.573715     0.217262
C    -3.036254    -1.166657     0.363550
C    -1.652635    -0.697832     0.349800
C    -0.606839    -1.621101     0.391016
C    -0.867979    -2.983356     0.453502
C    -2.231811    -3.418004     0.493095
C    -3.316667    -2.576981     0.460006
H     0.405954    -1.244697     0.371610
H    -2.408962    -4.481484     0.555356
C     0.228251    -4.038113     0.470184
C    -4.757011    -3.090954     0.516199
O    -4.007017    -0.307889     0.285015
N    -0.193904     1.321928     0.293051
H     1.775332     1.659195     0.333072
C     1.785219     3.637640     0.281197
H     2.400243     4.531087     0.288761
N     2.384692     2.486501     0.345872
C     3.845354     2.294524     0.432656
C     4.532690     2.677622    -0.885722
C     4.442830     3.064431     1.616875
H     3.976204     1.223731     0.601854
C     6.041593     2.423764    -0.787798
H     4.346511     3.739914    -1.082254
H     4.095147     2.108774    -1.709968
C     5.951280     2.807156     1.709326
H     4.269105     4.136851     1.471489
H     3.935497     2.771123     2.539590
C     6.661485     3.167968     0.399516
H     6.524432     2.719617    -1.723238
H     6.213289     1.347004    -0.669169
H     6.366541     3.380097     2.543106
H     6.121133     1.747632     1.935345
H     7.728657     2.939253     0.474283
H     6.576668     4.248791     0.231691
H    -3.558353     0.709001     0.234381
C    -5.479400    -2.491065     1.742903
H    -5.529704    -1.404407     1.686730
H    -6.499026    -2.882834     1.787441
H    -4.966575    -2.770405     2.667018
C    -5.501853    -2.700229    -0.779229
H    -6.514188    -3.112056    -0.753030
H    -5.571618    -1.618896    -0.890823
H    -4.988483    -3.108660    -1.653440
C    -4.795305    -4.621148     0.648703
H    -4.332591    -5.118166    -0.208198
H    -4.288646    -4.958371     1.556852
H    -5.836114    -4.946411     0.703185
C     0.076203    -4.908145     1.737646
H    -0.895012    -5.405667     1.776182
H     0.850475    -5.679900     1.740309
H     0.188689    -4.303425     2.640467
C     1.631345    -3.419311     0.461744
H     1.798857    -2.815993    -0.433866
H     1.796636    -2.790555     1.340113
H     2.377252    -4.217231     0.472885
C     0.067692    -4.929846    -0.782057
H     0.831807    -5.711559    -0.769525
H    -0.911481    -5.412382    -0.812012
H     0.189560    -4.342879    -1.695403

radii=bondi
dis
rep
cav













