%chk=amide-monoBIP-E0PT.chk
%mem=10GB
%nprocshared=16
#p int=acc2e=14 scf=conver=10 opt=(calcfc,tight) freq=internalmodes b3lyp/6-31g(d,p)
scrf=(cpcm,solvent=dichloromethane,read) nosymm empiricaldispersion=gd3bj
int=grid=ultrafine

Simple amide-monoBIP E0PT optimization

1 2
 C                 -0.46042900    2.73552400    0.44632300
 C                 -1.86938200    2.86097700    0.31911800
 C                 -2.45922900    4.12806500    0.21212500
 C                 -1.61182400    5.22639600    0.23977700
 C                 -0.21295100    5.08782500    0.36665700
 C                  0.40347500    3.84109100    0.47083900
 C                 -1.40216300    0.73696200    0.43936800
 H                 -3.53118100    4.23901000    0.11128500
 H                 -2.02797900    6.22321200    0.16284800
 H                  0.38515100    5.99074500    0.38624100
 N                 -2.41829200    1.60055700    0.32007500
 C                 -2.98181800   -1.17836100    0.35049100
 C                 -1.61014800   -0.69134600    0.45640000
 C                 -0.57508200   -1.60079700    0.54441400
 C                 -0.82509700   -2.98620400    0.53630800
 C                 -2.16794500   -3.43646800    0.44222800
 C                 -3.25664300   -2.59666100    0.35289900
 H                  0.44528600   -1.24765700    0.61456100
 H                 -2.34014700   -4.49989200    0.44020700
 C                  0.34458400   -3.95343500    0.60054000
 C                 -4.68748900   -3.12415300    0.25374300
 O                 -3.96411100   -0.33474200    0.24370900
 H                 -3.57483900    0.64973700    0.24935100
 N                 -0.20671400    1.39093100    0.52119200
 H                  0.73765600    1.03450900    0.61838000
 C                  1.86855900    3.58918900    0.59276500
 C                  1.23136300   -3.71279200   -0.64445600
 H                  1.59860200   -2.68538700   -0.68098800
 H                  2.09334100   -4.38335500   -0.60485700
 H                  0.67709200   -3.91621100   -1.56349900
 C                  1.17192100   -3.66552800    1.87406900
 H                  0.57310400   -3.82568700    2.77331800
 H                  2.02653500   -4.34576800    1.90306800
 H                  1.55378900   -2.64293100    1.88895600
 C                 -0.09979100   -5.42172600    0.62071400
 H                 -0.71756100   -5.64562800    1.49408600
 H                 -0.65775300   -5.68883700   -0.28028400
 H                  0.78520600   -6.05917300    0.66566200
 C                 -5.31826300   -2.68133600   -1.08627000
 H                 -6.32749900   -3.09450100   -1.15550800
 H                 -5.38528000   -1.59744000   -1.16895600
 H                 -4.73622800   -3.06142000   -1.92932300
 C                 -5.52563500   -2.59131000    1.43859900
 H                 -5.61519800   -1.50634600    1.41633000
 H                 -6.52849900   -3.02214700    1.38674800
 H                 -5.07546800   -2.88519400    2.38989700
 C                 -4.71416400   -4.66019800    0.30564200
 H                 -4.15920000   -5.10409900   -0.52484100
 H                 -4.29883400   -5.03995400    1.24253400
 H                 -5.75016000   -4.99681800    0.23543800
 O                  2.29259300    2.42583100    0.70211100
 N                  2.69304500    4.65334600    0.58715100
 H                  2.37410300    5.59326900    0.41982900
 H                  3.68763400    4.48725700    0.62032700

radii=bondi
dis
rep
cav


