%chk=cyclohexyl-monoBIP-2PT.chk
%mem=10GB
%nprocshared=16
#p opt=tight freq=internalmodes b3lyp/6-31g(d,p)
scrf=(cpcm,solvent=dichloromethane,read) nosymm empiricaldispersion=gd3bj
int=grid=ultrafine

cyclohexylimine monoBIP neutral, with both protons transferred
optimization

0 1
C    -0.541177     2.784320     0.331731
C    -1.941360     3.017521     0.231074
C    -2.461898     4.298013     0.120786
C    -1.555469     5.378232     0.114886
C    -0.183479     5.177397     0.205173
C     0.360628     3.874672     0.308563
C    -1.491416     0.841297     0.385276
H    -3.528544     4.468387     0.039620
H    -1.942001     6.386963     0.035265
H     0.491800     6.025327     0.192976
N    -2.499116     1.758472     0.266759
C    -3.083496    -1.128444     0.344433
C    -1.731869    -0.581667     0.451777
C    -0.614610    -1.424938     0.617311
C    -0.738204    -2.799009     0.689741
C    -2.041919    -3.331046     0.571971
C    -3.187646    -2.571683     0.398419
H     0.362039    -0.957788     0.690554
H    -2.151241    -4.405077     0.619421
C     0.506066    -3.676845     0.878066
C    -4.563558    -3.235512     0.250780
O    -4.133715    -0.381660     0.204715
N    -0.276718     1.451727     0.426744
C     1.764705     3.665239     0.353315
H     2.433821     4.518395     0.312636
N     2.296277     2.476294     0.431684
C     3.740017     2.185756     0.421919
C     4.323414     2.363350    -0.987316
C     4.502885     3.022666     1.455184
H     3.815544     1.132493     0.701122
C     5.813948     2.006008    -0.999181
H     4.188954     3.408394    -1.291137
H     3.766790     1.742960    -1.694584
C     5.991761     2.657522     1.438656
H     4.390656     4.087263     1.220119
H     4.071704     2.858817     2.445891
C     6.593937     2.819478     0.039131
H     6.222281     2.172416    -1.999843
H     5.927920     0.936492    -0.784264
H     6.527639     3.279986     2.160559
H     6.108474     1.617622     1.767349
H     7.645215     2.517173     0.043232
H     6.567713     3.879210    -0.242898
H    -3.460593     1.365619     0.208079
H     1.628292     1.693142     0.454452
C    -5.509236    -2.747514     1.367439
H    -5.606035    -1.663404     1.337972
H    -6.499557    -3.198054     1.245487
H    -5.123598    -3.038689     2.349160
C    -4.487294    -4.767787     0.343256
H    -5.492172    -5.184985     0.235131
H    -3.860815    -5.192901    -0.445866
H    -4.090185    -5.095179     1.308094
C    -5.161278    -2.877394    -1.126534
H    -5.238018    -1.796574    -1.240487
H    -4.529983    -3.268042    -1.930183
H    -6.157858    -3.317942    -1.233756
C     1.217030    -3.283881     2.188258
H     2.113531    -3.893641     2.337142
H     1.519687    -2.233864     2.171024
H     0.554892    -3.429646     3.045900
C     1.471910    -3.453471    -0.303322
H     1.772602    -2.404929    -0.371382
H     2.375153    -4.059825    -0.183536
H     0.995669    -3.731175    -1.247869
C     0.162540    -5.172135     0.943328
H    -0.494527    -5.399360     1.787109
H    -0.331465    -5.509308     0.028323
H     1.079704    -5.754263     1.064210

radii=bondi
dis
rep
cav









